Minimize
  2a1 + 2a2 + 3a3 + 5a4
Subject To
  c0: x00 = 1
  c1: x11 = 1
  c2: x21 + x22 = 1
  c3: x31 + x32 + x33 = 1
  c4: x42 = 1
  c5: x52 + x53 = 1
  c6: x62 + x63 + x64 = 1
  c7: x73 + x74 = 1
  c8: x83 = 1
  c9: x94 = 1
  c10: xn5 = 1
Integer
  a1 a2 a3 a4
End
